p cnf 30 146
c 1 = (1, 7)
c 2 = (1, 8)
c 3 = (1, 9)
c 4 = (1, 10)
c 5 = (1, 11)
c 6 = (2, 7)
c 7 = (2, 8)
c 8 = (2, 9)
c 9 = (2, 10)
c 10 = (2, 11)
c 11 = (3, 7)
c 12 = (3, 8)
c 13 = (3, 9)
c 14 = (3, 10)
c 15 = (3, 11)
c 16 = (4, 7)
c 17 = (4, 8)
c 18 = (4, 9)
c 19 = (4, 10)
c 20 = (4, 11)
c 21 = (5, 7)
c 22 = (5, 8)
c 23 = (5, 9)
c 24 = (5, 10)
c 25 = (5, 11)
c 26 = (6, 7)
c 27 = (6, 8)
c 28 = (6, 9)
c 29 = (6, 10)
c 30 = (6, 11)
-24 -9 0
-13 -3 0
-6 -9 0
-16 -18 0
-29 -26 0
-27 -26 0
-20 -19 0
-16 -17 0
-16 -1 0
-19 -18 0
-19 -9 0
-8 -23 0
-5 -3 0
-24 -14 0
-30 -10 0
-5 -25 0
-13 -28 0
-6 -21 0
-14 -29 0
-16 -21 0
-15 -20 0
-16 -11 0
2 7 12 17 22 27 0
-12 -27 0
-13 -12 0
-11 -1 0
-28 -26 0
-21 -1 0
26 27 28 29 30 0
-18 -17 0
-28 -27 0
-14 -12 0
-22 -12 0
-6 -1 0
-10 -9 0
-2 -17 0
-24 -23 0
-22 -17 0
3 8 13 18 23 28 0
-20 -18 0
-24 -22 0
-15 -13 0
-11 -26 0
-24 -21 0
-6 -11 0
-21 -26 0
-22 -27 0
-27 -2 0
-14 -9 0
-30 -25 0
8 9 10 6 7 0
-7 -17 0
-5 -10 0
-23 -21 0
-27 -17 0
-16 -26 0
-5 -4 0
-29 -28 0
24 25 21 22 23 0
-30 -29 0
-30 -27 0
-6 -26 0
-8 -13 0
-8 -10 0
-29 -9 0
-22 -2 0
-23 -3 0
-23 -25 0
-12 -17 0
4 9 14 19 24 29 0
-29 -19 0
-26 -1 0
-5 -1 0
-5 -2 0
-15 -11 0
-16 -20 0
-15 -10 0
-7 -6 0
1 6 11 16 21 26 0
-8 -3 0
-29 -4 0
-4 -9 0
-10 -25 0
1 2 3 4 5 0
-23 -13 0
5 10 15 20 25 30 0
-15 -30 0
-30 -5 0
-21 -11 0
-20 -25 0
-22 -25 0
-13 -11 0
-29 -27 0
-16 -6 0
-12 -2 0
-28 -18 0
-8 -9 0
-24 -25 0
-8 -18 0
-4 -2 0
-4 -1 0
-8 -28 0
-14 -4 0
-30 -20 0
16 17 18 19 20 0
-4 -19 0
-19 -17 0
-5 -20 0
-6 -10 0
-7 -12 0
-23 -28 0
-20 -17 0
-7 -2 0
-23 -18 0
-28 -3 0
-7 -22 0
-21 -25 0
-30 -26 0
-3 -18 0
-14 -13 0
-22 -21 0
-14 -11 0
-24 -29 0
-3 -2 0
-3 -1 0
-23 -22 0
-7 -9 0
11 12 13 14 15 0
-2 -1 0
-24 -4 0
-30 -28 0
-15 -5 0
-7 -27 0
-20 -10 0
-15 -25 0
-15 -14 0
-15 -12 0
-7 -10 0
-4 -3 0
-8 -7 0
-13 -18 0
-16 -19 0
-8 -6 0
-24 -19 0
-14 -19 0
-12 -11 0
